40
6 3 67
8 0 56
8 4 45
10 7 75
11 2 44
12 7 79
12 8 64
12 10 14
15 14 64
16 4 33
16 14 1
17 9 35
17 12 12
17 13 21
18 7 60
18 14 3
19 3 21
21 3 24
21 4 36
21 11 40
23 9 19
23 16 23
23 17 75
23 22 33
24 9 55
24 13 37
24 18 11
24 23 21
25 13 58
25 16 61
25 19 30
26 5 74
26 23 58
27 19 15
27 20 52
28 4 22
28 15 63
29 8 20
29 19 5
29 26 62
30 15 22
30 17 8
30 18 24
31 10 29
31 12 17
31 18 18
32 20 17
32 26 18
33 0 53
33 13 37
33 20 65
34 18 21
34 19 31
35 20 62
35 24 22
35 26 42
36 3 40
36 23 50
36 35 25
37 7 5
37 13 25
37 19 15
37 29 68
37 32 48
38 2 65
38 3 45
38 19 45
38 34 16
39 12 7
39 24 74
39 31 60
39 36 44
